(set-info :smt-lib-version 2.6)
(set-logic UFNIA)
(set-info :source |
Generated by: Geoff Sutcliffe
Generated on: 2026-03-11
Generator: TPTPWorld
Application: Benchmarking automated theorem provers
Time limit: 120.0

These benchmarks are translations from the TPTP Library (Thousands of
Problems for Theorem Provers), see http://www.cs.miami.edu/~tptp/

The TPTP is maintained by Geoff Sutcliffe, and he contributed this
selection of benchmarks to SMT-LIB.  They were exported from the
v9.2.1 realease of TPTP.
|)
(set-info :category "industrial")
(set-info :status unknown)
; SZS status Success
(declare-sort $$unsorted 0)
(declare-sort tptp.uni 0)
(declare-sort tptp.ty 0)
(declare-fun tptp.sort (tptp.ty tptp.uni) Bool)
(declare-fun tptp.witness (tptp.ty) tptp.uni)
(assert (forall ((A tptp.ty)) (tptp.sort A (tptp.witness A))))
(declare-fun tptp.int () tptp.ty)
(declare-fun tptp.real () tptp.ty)
(declare-sort tptp.bool 0)
(declare-fun tptp.bool1 () tptp.ty)
(declare-fun tptp.true () tptp.bool)
(declare-fun tptp.false () tptp.bool)
(declare-fun tptp.match_bool (tptp.ty tptp.bool tptp.uni tptp.uni) tptp.uni)
(assert (forall ((A tptp.ty) (X tptp.bool) (X1 tptp.uni) (X2 tptp.uni)) (tptp.sort A (tptp.match_bool A X X1 X2))))
(assert (forall ((A tptp.ty) (Z tptp.uni) (Z1 tptp.uni)) (=> (tptp.sort A Z) (= (tptp.match_bool A tptp.true Z Z1) Z))))
(assert (forall ((A tptp.ty) (Z tptp.uni) (Z1 tptp.uni)) (=> (tptp.sort A Z1) (= (tptp.match_bool A tptp.false Z Z1) Z1))))
(assert (not (= tptp.true tptp.false)))
(assert (forall ((U tptp.bool)) (or (= U tptp.true) (= U tptp.false))))
(declare-sort tptp.tuple0 0)
(declare-fun tptp.tuple01 () tptp.ty)
(declare-fun tptp.tuple02 () tptp.tuple0)
(assert (forall ((U tptp.tuple0)) (= U tptp.tuple02)))
(declare-fun tptp.qtmark () tptp.ty)
(assert (forall ((X Int) (Y Int) (Z Int)) (=> (<= X Y) (=> (<= 0 Z) (<= (* X Z) (* Y Z))))))
(declare-fun tptp.power (Int Int) Int)
(assert (forall ((X Int)) (= (tptp.power X 0) 1)))
(assert (forall ((X Int) (N Int)) (=> (<= 0 N) (= (tptp.power X (+ N 1)) (* X (tptp.power X N))))))
(assert (forall ((X Int) (N Int)) (=> (< 0 N) (= (tptp.power X N) (* X (tptp.power X (- N 1)))))))
(assert (forall ((X Int)) (= (tptp.power X 1) X)))
(assert (forall ((X Int) (N Int) (M Int)) (=> (<= 0 N) (=> (<= 0 M) (= (tptp.power X (+ N M)) (* (tptp.power X N) (tptp.power X M)))))))
(assert (forall ((X Int) (N Int) (M Int)) (=> (<= 0 N) (=> (<= 0 M) (= (tptp.power X (* N M)) (tptp.power (tptp.power X N) M))))))
(assert (forall ((X Int) (Y Int) (N Int)) (=> (<= 0 N) (= (tptp.power (* X Y) N) (* (tptp.power X N) (tptp.power Y N))))))
(declare-fun tptp.abs (Int) Int)
(assert (forall ((X Int)) (let ((_let_1 (tptp.abs X))) (let ((_let_2 (<= 0 X))) (and (=> _let_2 (= _let_1 X)) (=> (not _let_2) (= _let_1 (- X))))))))
(assert (forall ((X Int) (Y Int)) (= (<= (tptp.abs X) Y) (and (<= (- Y) X) (<= X Y)))))
(assert (forall ((X Int)) (<= 0 (tptp.abs X))))
(declare-fun tptp.div (Int Int) Int)
(declare-fun tptp.mod (Int Int) Int)
(assert (forall ((X Int) (Y Int)) (=> (not (= Y 0)) (= X (+ (* Y (tptp.div X Y)) (tptp.mod X Y))))))
(assert (forall ((X Int) (Y Int)) (let ((_let_1 (tptp.div X Y))) (=> (and (<= 0 X) (< 0 Y)) (and (<= 0 _let_1) (<= _let_1 X))))))
(assert (forall ((X Int) (Y Int)) (let ((_let_1 (tptp.abs Y))) (let ((_let_2 (tptp.mod X Y))) (=> (not (= Y 0)) (and (< (- _let_1) _let_2) (< _let_2 _let_1)))))))
(assert (forall ((X Int) (Y Int)) (=> (and (<= 0 X) (< 0 Y)) (<= 0 (tptp.div X Y)))))
(assert (forall ((X Int) (Y Int)) (=> (and (<= X 0) (< 0 Y)) (<= (tptp.div X Y) 0))))
(assert (forall ((X Int) (Y Int)) (=> (and (<= 0 X) (not (= Y 0))) (<= 0 (tptp.mod X Y)))))
(assert (forall ((X Int) (Y Int)) (=> (and (<= X 0) (not (= Y 0))) (<= (tptp.mod X Y) 0))))
(assert (forall ((X Int) (Y Int)) (=> (not (= Y 0)) (<= (tptp.abs (* (tptp.div X Y) Y)) (tptp.abs X)))))
(assert (forall ((X Int)) (= (tptp.div X 1) X)))
(assert (forall ((X Int)) (= (tptp.mod X 1) 0)))
(assert (forall ((X Int) (Y Int)) (=> (and (<= 0 X) (< X Y)) (= (tptp.div X Y) 0))))
(assert (forall ((X Int) (Y Int)) (=> (and (<= 0 X) (< X Y)) (= (tptp.mod X Y) X))))
(assert (forall ((X Int) (Y Int) (Z Int)) (=> (and (< 0 X) (<= 0 Y) (<= 0 Z)) (= (tptp.div (+ (* X Y) Z) X) (+ Y (tptp.div Z X))))))
(assert (forall ((X Int) (Y Int) (Z Int)) (=> (and (< 0 X) (<= 0 Y) (<= 0 Z)) (= (tptp.mod (+ (* X Y) Z) X) (tptp.mod Z X)))))
(declare-fun tptp.ref (tptp.ty) tptp.ty)
(declare-fun tptp.mk_ref (tptp.ty tptp.uni) tptp.uni)
(assert (forall ((A tptp.ty) (X tptp.uni)) (tptp.sort (tptp.ref A) (tptp.mk_ref A X))))
(declare-fun tptp.contents (tptp.ty tptp.uni) tptp.uni)
(assert (forall ((A tptp.ty) (X tptp.uni)) (tptp.sort A (tptp.contents A X))))
(assert (forall ((A tptp.ty) (U tptp.uni)) (=> (tptp.sort A U) (= (tptp.contents A (tptp.mk_ref A U)) U))))
(assert (forall ((A tptp.ty) (U tptp.uni)) (=> (tptp.sort (tptp.ref A) U) (= U (tptp.mk_ref A (tptp.contents A U))))))
(assert (not (forall ((X Int) (N Int)) (=> (<= 0 N) (forall ((E Int) (P Int) (R Int)) (let ((_let_1 (tptp.power X N))) (=> (and (<= 0 E) (= (* R (tptp.power P E)) _let_1)) (=> (not (< 0 E)) (= R _let_1)))))))))
(check-sat)
(exit)
